(declare-fun b17 () (_ FloatingPoint 8 24))
(declare-fun b14 () (_ FloatingPoint 8 24))
(declare-fun b11 () (_ FloatingPoint 8 24))
(declare-fun b62 () (_ FloatingPoint 8 24))
(declare-fun b26 () (_ FloatingPoint 8 24))
(declare-fun b50 () (_ FloatingPoint 8 24))
(declare-fun b35 () (_ FloatingPoint 8 24))
(declare-fun b68 () (_ FloatingPoint 8 24))
(declare-fun b23 () (_ FloatingPoint 8 24))
(declare-fun b47 () (_ FloatingPoint 8 24))
(declare-fun b71 () (_ FloatingPoint 8 24))
(declare-fun b20 () (_ FloatingPoint 8 24))
(declare-fun b65 () (_ FloatingPoint 8 24))
(declare-fun b38 () (_ FloatingPoint 8 24))
(declare-fun b53 () (_ FloatingPoint 8 24))
(declare-fun b56 () (_ FloatingPoint 8 24))
(declare-fun b29 () (_ FloatingPoint 8 24))
(declare-fun b44 () (_ FloatingPoint 8 24))
(declare-fun b41 () (_ FloatingPoint 8 24))
(declare-fun b10 () (_ FloatingPoint 8 24))
(declare-fun b59 () (_ FloatingPoint 8 24))
(declare-fun b32 () (_ FloatingPoint 8 24))
(assert (let ((.def_130 (fp.leq b71 b68)))
(let ((.def_12 (fp.div RNE b10 b11)))
(let ((.def_14 (fp.div RNE .def_12 b14)))
(let ((.def_16 (fp.div RNE .def_14 b17)))
(let ((.def_18 (fp.div RNE .def_16 b20)))
(let ((.def_20 (fp.div RNE .def_18 b23)))
(let ((.def_22 (fp.div RNE .def_20 b26)))
(let ((.def_24 (fp.div RNE .def_22 b29)))
(let ((.def_26 (fp.div RNE .def_24 b32)))
(let ((.def_28 (fp.div RNE .def_26 b35)))
(let ((.def_30 (fp.div RNE .def_28 b38)))
(let ((.def_32 (fp.div RNE .def_30 b41)))
(let ((.def_34 (fp.div RNE .def_32 b44)))
(let ((.def_36 (fp.div RNE .def_34 b47)))
(let ((.def_38 (fp.div RNE .def_36 b50)))
(let ((.def_40 (fp.div RNE .def_38 b53)))
(let ((.def_42 (fp.div RNE .def_40 b56)))
(let ((.def_44 (fp.div RNE .def_42 b59)))
(let ((.def_46 (fp.div RNE .def_44 b62)))
(let ((.def_48 (fp.div RNE .def_46 b65)))
(let ((.def_128 (fp.lt b68 .def_48)))
(let ((.def_126 (fp.leq b71 b65)))
(let ((.def_124 (fp.lt b65 .def_46)))
(let ((.def_122 (fp.leq b71 b62)))
(let ((.def_120 (fp.lt b62 .def_44)))
(let ((.def_118 (fp.leq b71 b59)))
(let ((.def_116 (fp.lt b59 .def_42)))
(let ((.def_114 (fp.leq b71 b56)))
(let ((.def_112 (fp.lt b56 .def_40)))
(let ((.def_110 (fp.leq b71 b53)))
(let ((.def_108 (fp.lt b53 .def_38)))
(let ((.def_106 (fp.leq b71 b50)))
(let ((.def_104 (fp.lt b50 .def_36)))
(let ((.def_102 (fp.leq b71 b47)))
(let ((.def_100 (fp.lt b47 .def_34)))
(let ((.def_98 (fp.leq b71 b44)))
(let ((.def_96 (fp.lt b44 .def_32)))
(let ((.def_94 (fp.leq b71 b41)))
(let ((.def_92 (fp.lt b41 .def_30)))
(let ((.def_90 (fp.leq b71 b38)))
(let ((.def_88 (fp.lt b38 .def_28)))
(let ((.def_86 (fp.leq b71 b35)))
(let ((.def_84 (fp.lt b35 .def_26)))
(let ((.def_82 (fp.leq b71 b32)))
(let ((.def_80 (fp.lt b32 .def_24)))
(let ((.def_78 (fp.leq b71 b29)))
(let ((.def_76 (fp.lt b29 .def_22)))
(let ((.def_74 (fp.leq b71 b26)))
(let ((.def_72 (fp.lt b26 .def_20)))
(let ((.def_70 (fp.leq b71 b23)))
(let ((.def_68 (fp.lt b23 .def_18)))
(let ((.def_66 (fp.leq b71 b20)))
(let ((.def_64 (fp.lt b20 .def_16)))
(let ((.def_62 (fp.leq b71 b17)))
(let ((.def_60 (fp.lt b17 .def_14)))
(let ((.def_58 (fp.leq b71 b14)))
(let ((.def_56 (fp.lt b14 .def_12)))
(let ((.def_54 (fp.leq b71 b11)))
(let ((.def_50 (fp.div RNE .def_48 b68)))
(let ((.def_52 (fp.lt .def_50 b71)))
(let ((.def_11 (fp.lt b11 b10)))
(let ((.def_53 (and .def_11 .def_52)))
(let ((.def_55 (and .def_53 .def_54)))
(let ((.def_57 (and .def_55 .def_56)))
(let ((.def_59 (and .def_57 .def_58)))
(let ((.def_61 (and .def_59 .def_60)))
(let ((.def_63 (and .def_61 .def_62)))
(let ((.def_65 (and .def_63 .def_64)))
(let ((.def_67 (and .def_65 .def_66)))
(let ((.def_69 (and .def_67 .def_68)))
(let ((.def_71 (and .def_69 .def_70)))
(let ((.def_73 (and .def_71 .def_72)))
(let ((.def_75 (and .def_73 .def_74)))
(let ((.def_77 (and .def_75 .def_76)))
(let ((.def_79 (and .def_77 .def_78)))
(let ((.def_81 (and .def_79 .def_80)))
(let ((.def_83 (and .def_81 .def_82)))
(let ((.def_85 (and .def_83 .def_84)))
(let ((.def_87 (and .def_85 .def_86)))
(let ((.def_89 (and .def_87 .def_88)))
(let ((.def_91 (and .def_89 .def_90)))
(let ((.def_93 (and .def_91 .def_92)))
(let ((.def_95 (and .def_93 .def_94)))
(let ((.def_97 (and .def_95 .def_96)))
(let ((.def_99 (and .def_97 .def_98)))
(let ((.def_101 (and .def_99 .def_100)))
(let ((.def_103 (and .def_101 .def_102)))
(let ((.def_105 (and .def_103 .def_104)))
(let ((.def_107 (and .def_105 .def_106)))
(let ((.def_109 (and .def_107 .def_108)))
(let ((.def_111 (and .def_109 .def_110)))
(let ((.def_113 (and .def_111 .def_112)))
(let ((.def_115 (and .def_113 .def_114)))
(let ((.def_117 (and .def_115 .def_116)))
(let ((.def_119 (and .def_117 .def_118)))
(let ((.def_121 (and .def_119 .def_120)))
(let ((.def_123 (and .def_121 .def_122)))
(let ((.def_125 (and .def_123 .def_124)))
(let ((.def_127 (and .def_125 .def_126)))
(let ((.def_129 (and .def_127 .def_128)))
(let ((.def_131 (and .def_129 .def_130)))
.def_131))))))))))))))))))))))))))))))))))))))))))))))))))))))))))))))))))))))))))))))))))))))))))))))))))))))
(check-sat)
